Minimize
	value: tt

Subject to
tt + 1000 s_1_1 > 0.0
tt - t_1_1 - 1000.000000 s_1_1  > -994.229500
tt + 1000 s_2_1 > 0.0
tt - t_2_1 - 1000.000000 s_2_1  > -993.167700
tt + 1000 s_1_2 > 0.0
tt - t_1_2 - 1000.000000 s_1_2  > -958.614000
tt + 1000 s_2_2 > 0.0
tt - t_2_2 - 1000.000000 s_2_2  > -935.954800
tt + 1000 s_1_3 > 0.0
tt - t_1_3 - 1000.000000 s_1_3  > -993.259000
tt + 1000 s_2_3 > 0.0
tt - t_2_3 - 1000.000000 s_2_3  > -989.540900
tt + 1000 s_1_4 > 0.0
tt - t_1_4 - 1000.000000 s_1_4  > -976.506878
tt + 1000 s_2_4 > 0.0
tt - t_2_4 - 1000.000000 s_2_4  > -964.590300
tt + 1000 s_1_5 > 0.0
tt - t_1_5 - 1008.116429 s_1_5  + 2.029107 s_1_3  + 2.029107 s_1_4  + 2.029107 s_1_1  + 2.029107 s_1_2  > -999.549667
tt + 1000 s_2_5 > 0.0
tt - t_2_5 - 1007.234630 s_2_5  + 1.808658 s_2_3  + 1.808658 s_2_4  + 1.808658 s_2_1  + 1.808658 s_2_2  > -998.088600
s_1_1 + s_2_1 = 1
s_1_2 + s_2_2 = 1
s_1_3 + s_2_3 = 1
s_1_4 + s_2_4 = 1
s_1_5 + s_2_5 = 1
s_1_1 + s_1_2 + 1000 r_1_1_2 >= 2
- s_1_1 - s_1_2 - 1000 r_1_1_2 >= -1001
t_1_1 - t_1_2 - 1000.000000 u_1_1_2 - 0.000000 s_1_2  + 2000.000000 r_1_1_2 > -958.614000
s_2_1 + s_2_2 + 1000 r_2_1_2 >= 2
- s_2_1 - s_2_2 - 1000 r_2_1_2 >= -1001
t_2_1 - t_2_2 - 1000.000000 u_2_1_2 - 0.000000 s_2_2  + 2000.000000 r_2_1_2 > -935.954800
s_1_1 + s_1_3 + 1000 r_1_1_3 >= 2
- s_1_1 - s_1_3 - 1000 r_1_1_3 >= -1001
t_1_1 - t_1_3 - 1000.000000 u_1_1_3 - 0.000000 s_1_3  + 2000.000000 r_1_1_3 > -993.259000
s_2_1 + s_2_3 + 1000 r_2_1_3 >= 2
- s_2_1 - s_2_3 - 1000 r_2_1_3 >= -1001
t_2_1 - t_2_3 - 1000.000000 u_2_1_3 - 0.000000 s_2_3  + 2000.000000 r_2_1_3 > -989.540900
s_1_1 + s_1_4 + 1000 r_1_1_4 >= 2
- s_1_1 - s_1_4 - 1000 r_1_1_4 >= -1001
t_1_1 - t_1_4 - 1000.000000 u_1_1_4 - 0.000000 s_1_4  + 2000.000000 r_1_1_4 > -976.506878
s_2_1 + s_2_4 + 1000 r_2_1_4 >= 2
- s_2_1 - s_2_4 - 1000 r_2_1_4 >= -1001
t_2_1 - t_2_4 - 1000.000000 u_2_1_4 - 0.000000 s_2_4  + 2000.000000 r_2_1_4 > -964.590300
t_1_5 - t_1_1 - 1000.000000 s_1_1  > -994.229500
t_1_5 - t_2_1 - 1000.000000 s_2_1  > -993.167700
t_2_5 - t_1_1 - 1000.000000 s_1_1  > -994.229500
t_2_5 - t_2_1 - 1000.000000 s_2_1  > -993.167700
s_1_2 + s_1_1 + 1000 r_1_1_2 >= 2
- s_1_2 - s_1_1 - 1000 r_1_1_2 >= -1001
t_1_2 - t_1_1 + 1000.000000 u_1_1_2 - 0.000000 s_1_1  + 2000.000000 r_1_1_2 > 5.770500
s_2_2 + s_2_1 + 1000 r_2_1_2 >= 2
- s_2_2 - s_2_1 - 1000 r_2_1_2 >= -1001
t_2_2 - t_2_1 + 1000.000000 u_2_1_2 - 0.000000 s_2_1  + 2000.000000 r_2_1_2 > 6.832300
s_1_2 + s_1_3 + 1000 r_1_2_3 >= 2
- s_1_2 - s_1_3 - 1000 r_1_2_3 >= -1001
t_1_2 - t_1_3 - 1000.000000 u_1_2_3 - 0.000000 s_1_3  + 2000.000000 r_1_2_3 > -993.259000
s_2_2 + s_2_3 + 1000 r_2_2_3 >= 2
- s_2_2 - s_2_3 - 1000 r_2_2_3 >= -1001
t_2_2 - t_2_3 - 1000.000000 u_2_2_3 - 0.000000 s_2_3  + 2000.000000 r_2_2_3 > -989.540900
s_1_2 + s_1_4 + 1000 r_1_2_4 >= 2
- s_1_2 - s_1_4 - 1000 r_1_2_4 >= -1001
t_1_2 - t_1_4 - 1000.000000 u_1_2_4 - 0.000000 s_1_4  + 2000.000000 r_1_2_4 > -976.506878
s_2_2 + s_2_4 + 1000 r_2_2_4 >= 2
- s_2_2 - s_2_4 - 1000 r_2_2_4 >= -1001
t_2_2 - t_2_4 - 1000.000000 u_2_2_4 - 0.000000 s_2_4  + 2000.000000 r_2_2_4 > -964.590300
t_1_5 - t_1_2 - 1000.000000 s_1_2  > -958.614000
t_1_5 - t_2_2 - 1000.000000 s_2_2  > -935.954800
t_2_5 - t_1_2 - 1000.000000 s_1_2  > -958.614000
t_2_5 - t_2_2 - 1000.000000 s_2_2  > -935.954800
s_1_3 + s_1_1 + 1000 r_1_1_3 >= 2
- s_1_3 - s_1_1 - 1000 r_1_1_3 >= -1001
t_1_3 - t_1_1 + 1000.000000 u_1_1_3 - 0.000000 s_1_1  + 2000.000000 r_1_1_3 > 5.770500
s_2_3 + s_2_1 + 1000 r_2_1_3 >= 2
- s_2_3 - s_2_1 - 1000 r_2_1_3 >= -1001
t_2_3 - t_2_1 + 1000.000000 u_2_1_3 - 0.000000 s_2_1  + 2000.000000 r_2_1_3 > 6.832300
s_1_3 + s_1_2 + 1000 r_1_2_3 >= 2
- s_1_3 - s_1_2 - 1000 r_1_2_3 >= -1001
t_1_3 - t_1_2 + 1000.000000 u_1_2_3 - 0.000000 s_1_2  + 2000.000000 r_1_2_3 > 41.386000
s_2_3 + s_2_2 + 1000 r_2_2_3 >= 2
- s_2_3 - s_2_2 - 1000 r_2_2_3 >= -1001
t_2_3 - t_2_2 + 1000.000000 u_2_2_3 - 0.000000 s_2_2  + 2000.000000 r_2_2_3 > 64.045200
s_1_3 + s_1_4 + 1000 r_1_3_4 >= 2
- s_1_3 - s_1_4 - 1000 r_1_3_4 >= -1001
t_1_3 - t_1_4 - 1000.000000 u_1_3_4 - 0.000000 s_1_4  + 2000.000000 r_1_3_4 > -976.506878
s_2_3 + s_2_4 + 1000 r_2_3_4 >= 2
- s_2_3 - s_2_4 - 1000 r_2_3_4 >= -1001
t_2_3 - t_2_4 - 1000.000000 u_2_3_4 - 0.000000 s_2_4  + 2000.000000 r_2_3_4 > -964.590300
t_1_5 - t_1_3 - 1000.000000 s_1_3  > -993.259000
t_1_5 - t_2_3 - 1000.000000 s_2_3  > -989.540900
t_2_5 - t_1_3 - 1000.000000 s_1_3  > -993.259000
t_2_5 - t_2_3 - 1000.000000 s_2_3  > -989.540900
s_1_4 + s_1_1 + 1000 r_1_1_4 >= 2
- s_1_4 - s_1_1 - 1000 r_1_1_4 >= -1001
t_1_4 - t_1_1 + 1000.000000 u_1_1_4 - 0.000000 s_1_1  + 2000.000000 r_1_1_4 > 5.770500
s_2_4 + s_2_1 + 1000 r_2_1_4 >= 2
- s_2_4 - s_2_1 - 1000 r_2_1_4 >= -1001
t_2_4 - t_2_1 + 1000.000000 u_2_1_4 - 0.000000 s_2_1  + 2000.000000 r_2_1_4 > 6.832300
s_1_4 + s_1_2 + 1000 r_1_2_4 >= 2
- s_1_4 - s_1_2 - 1000 r_1_2_4 >= -1001
t_1_4 - t_1_2 + 1000.000000 u_1_2_4 - 0.000000 s_1_2  + 2000.000000 r_1_2_4 > 41.386000
s_2_4 + s_2_2 + 1000 r_2_2_4 >= 2
- s_2_4 - s_2_2 - 1000 r_2_2_4 >= -1001
t_2_4 - t_2_2 + 1000.000000 u_2_2_4 - 0.000000 s_2_2  + 2000.000000 r_2_2_4 > 64.045200
s_1_4 + s_1_3 + 1000 r_1_3_4 >= 2
- s_1_4 - s_1_3 - 1000 r_1_3_4 >= -1001
t_1_4 - t_1_3 + 1000.000000 u_1_3_4 - 0.000000 s_1_3  + 2000.000000 r_1_3_4 > 6.741000
s_2_4 + s_2_3 + 1000 r_2_3_4 >= 2
- s_2_4 - s_2_3 - 1000 r_2_3_4 >= -1001
t_2_4 - t_2_3 + 1000.000000 u_2_3_4 - 0.000000 s_2_3  + 2000.000000 r_2_3_4 > 10.459100
t_1_5 - t_1_4 - 1000.000000 s_1_4  > -976.506878
t_1_5 - t_2_4 - 1000.000000 s_2_4  > -964.590300
t_2_5 - t_1_4 - 1000.000000 s_1_4  > -976.506878
t_2_5 - t_2_4 - 1000.000000 s_2_4  > -964.590300
Binary
s_1_1
s_2_1
s_1_2
s_2_2
s_1_3
s_2_3
s_1_4
s_2_4
s_1_5
s_2_5
u_1_1_2
r_1_1_2
u_2_1_2
r_2_1_2
u_1_1_3
r_1_1_3
u_2_1_3
r_2_1_3
u_1_1_4
r_1_1_4
u_2_1_4
r_2_1_4
u_1_2_3
r_1_2_3
u_2_2_3
r_2_2_3
u_1_2_4
r_1_2_4
u_2_2_4
r_2_2_4
u_1_3_4
r_1_3_4
u_2_3_4
r_2_3_4

End
